8   0
  0.00   0.70     0.00  0.50     8    
  0.70   1.00     0.00  0.50     7
  0.00   0.70     0.50  0.85     3
  0.70   0.94     0.50  0.85     2   
  0.94   1.00     0.50  0.85     1
  0.00   0.70     0.85  1.00     6
  0.70   0.94     0.85  1.00     5
  0.94   1.00     0.85  1.00     4